# SCIP version 2.1.1.6

# priority of node selection rule <hybridestim> in standard mode
# [type: int, range: [-536870912,536870911], default: 50000]
nodeselection/hybridestim/stdpriority = 1000000

# priority of branching rule <random>
# [type: int, range: [-536870912,536870911], default: -100000]
branching/random/priority = 10000000

